(declare-const income Real)
(declare-const fee_bl Real)
(declare-const p535 Real)
(declare-const p680 Real)
(declare-const p785 Real)
(declare-const p985 Real)
(assert (= p535 (* 0.0535 (ite (> income 47620) 47620 income))))
(assert (= p680 (ite (> income 47620) (* 0.0680 (- (ite (> income 189180) 189180 income) 47620)) 0)))
(assert (= p785 (ite (> income 189180) (* 0.0785 (- (ite (> income 330410) 330410 income) 189180)) 0)))
(assert (= p985 (ite (> income 330410) (* 0.0985 (- income 330410)) 0)))
(assert (= fee_bl (+ (+ (+ p535 p680) p785) p985)))